3 
4 
5  05 27 43 
6  03 15 28 43 58 
7  16 31 46 
8  01 16 31 46 
9  01 16 31 46 
10  01 16 31 46 
11  01 16 31 46 
12  01 16 31 46 
13  01 16 31 46 
14  01 16 31 46 
15  01 16 31 46 
16  01 16 31 46 
17  01 16 31 46 
18  01 16 31 47 
19  03 18 33 48 
20  03 18 33 48 
21  03 18 33 48 
22  02 17 32 47 
23  02 
0 
